5683091484207630203508,3,1,2,013,7,1,2,06,11,1,2,02,2,1,2,01,4,1,2,014,12,1,2,013,4,1,2,05,6,1,2,03,12,1,2,07,9,1,2,05,8,1,2,010,6,1,2,01,6,1,2,08,14,1,2,09,3,1,2,012,8,1,2,015,9,1,2,012,15,1,2,011,12,1,2,01,11,1,2,09,15,1,2,010,1,1,2,014,2,1,2,03,13,1,2,09,1,1,2,06,4,1,2,08,7,1,2,015,14,1,2,01,15,1,2,010,5,1,2,015,14,1,2,07,14,1,2,014,3,1,2,015,5,1,2,01,3,1,2,06,7,1,2,02,13,1,2,011,1,1,2,06,3,1,2,015,10,1,2,05,13,1,2,06,6,1,2,014,9,1,2,02,13,1,2,02,5,1,2,04,7,1,2,014,9,1,2,06,10,1,2,02,14,1,2,05,13,1,2,0